(set-info :smt-lib-version 2.7)
(set-logic ALL)
(set-info :source |
Generated on: 2026-06-22
Generator: pog2smtlib-2.7 github.com/CLEARSY/pog2smtlib-2.7 (-l HO_ALL -rpX)
Application: Discharging a proof obligation generated by aTelierB from an anonymized B machine
Target solver: CVC5 (--mbqi --enum-inst)
Time limit: 1200.0
|)
(set-info :license "www.gnu.org/licenses/gpl-3.0.en.html")
(set-info :category "industrial")
(set-info :status unknown)

(define-sort |BOOL| () Bool)
(declare-sort P 1)
(declare-datatype C (par (T1 T2) ((maplet (fst T1) (snd T2)))))
(define-sort |Z| () Int)
(define-sort |REAL| () Real)
(define-sort |POW BOOL| () (P |BOOL|))
(define-sort |(BOOL x Z)| () (C |BOOL| |Z|))
(define-sort |POW Z| () (P |Z|))
(define-sort |POW REAL| () (P |REAL|))
(declare-fun |set.in BOOL| (|BOOL| |POW BOOL|) Bool)
(define-sort |POW (BOOL x Z)| () (P |(BOOL x Z)|))
(declare-fun |set.in Z| (|Z| |POW Z|) Bool)
(declare-fun |set.in REAL| (|REAL| |POW REAL|) Bool)
(declare-fun |set.in (BOOL x Z)| (|(BOOL x Z)| |POW (BOOL x Z)|) Bool)
(declare-const |set.empty REAL| |POW REAL|)
(assert (!
  (forall ((e |REAL|)) (not (|set.in REAL| e |set.empty REAL|)))
  :named |ax.set.in.empty REAL|))
(declare-const s5 |Z|)
(declare-const s15 |Z|)
(declare-const s28$1 |REAL|)
(declare-const s14 |Z|)
(declare-const s19 |REAL|)
(declare-const s18 |REAL|)
(declare-const s16 |Z|)
(declare-const s10 |REAL|)
(declare-const s7 |Z|)
(declare-const s13 |REAL|)
(declare-const s9 |Z|)
(declare-const s8 |REAL|)
(declare-const s25$1 |REAL|)
(declare-const s17 |REAL|)
(declare-const s27 |REAL|)
(declare-const s3 |REAL|)
(declare-const s33$1 |REAL|)
(declare-const s25 |REAL|)
(declare-const s0 |REAL|)
(declare-const s26$1 |REAL|)
(declare-const s21$1 |Z|)
(declare-const s4 |REAL|)
(declare-const s29$2 |REAL|)
(declare-const s22$1 |Z|)
(declare-const s28 |REAL|)
(declare-const s32$1 |REAL|)
(declare-const s11 |REAL|)
(declare-const s31$1 |REAL|)
(declare-const s24$1 |Z|)
(declare-const s30$1 |BOOL|)
(declare-const s30 |BOOL|)
(declare-const s26 |REAL|)
(declare-const s2 |REAL|)
(declare-const s6 |POW Z|)
(declare-const s12 |REAL|)
(declare-const s21 |Z|)
(declare-const s20$1 |Z|)
(declare-const s1 |REAL|)
(declare-const s23$1 |Z|)
(declare-const s29$1 |REAL|)
(declare-const s27$1 |REAL|)
(declare-const s23 |Z|)
(declare-const s20 |Z|)
(declare-const s29 |REAL|)
(declare-const s22 |Z|)
(declare-const s24 |Z|)
(declare-fun |fun.eval BOOL Z| (|POW (BOOL x Z)| |BOOL|) |Z|)
 (assert (!
    (forall ((f |POW (BOOL x Z)|)(x |BOOL|))
        (|set.in (BOOL x Z)| (maplet x (|fun.eval BOOL Z| f x)) f))
    :named |ax.fun.eval (BOOL x Z)|))
(declare-fun |rmax| (|POW REAL|) |REAL|)
(assert (!
  (forall ((s |POW REAL|))
    (=> (not (= s |set.empty REAL|)) (|set.in REAL| (|rmax| s) s)))
  :named |ax.rmax.is.member|))
(assert (!
  (forall ((s |POW REAL|))
    (forall ((e |REAL|))
      (=> (|set.in REAL| e s) (<= e (|rmax| s)))))
    :named |ax.rmax.is.ge|))
(define-fun |int.real| ((x |Z|)) |REAL| (to_real x))
(declare-fun |real.div| (|REAL| |REAL|) |REAL|)
(assert (!
  (forall ((a |REAL|) (b |REAL|))
    (and
      (=> (and (<= 0 a) (< 0 b))
        (= (|real.div| a b) (/ a b)))
      (=> (and (<= 0 a) (< b 0))
        (= (|real.div| a b) (- (/ a (- b)))))
      (=> (and (< a 0) (< 0 b))
        (= (|real.div| a b) (- (/ (- a) b))))
      (=> (and (<= a 0) (< b 0))
        (= (|real.div| a b) (/ a b)))))
  :named |ax.real.div :1|))
(define-sort |? REAL| () (-> |REAL| Bool))
(declare-const |set.intent REAL| (-> |? REAL| |POW REAL|))
(assert (!
  (forall ((p |? REAL|))
    (forall ((x |REAL|))
      (= (|set.in REAL| x (|set.intent REAL| p))
         (@ p x))))
  :named |ax:set.in.intent REAL|))
(declare-fun |rmin| (|POW REAL|) |REAL|)
(assert (!
  (forall ((s |POW REAL|))
    (=> (not (= s |set.empty REAL|)) (|set.in REAL| (|rmin| s) s)))
  :named |ax.rmin.is.member|))
 (assert (!
   (forall ((s |POW REAL|))
     (forall ((e |REAL|))
        (=> (|set.in REAL| e s) (<= (|rmin| s) e))))
  :named |ax.rmin.is.ge|))
(define-sort |? (BOOL x Z)| () (-> |(BOOL x Z)| Bool))
(declare-const |set.intent (BOOL x Z)| (-> |? (BOOL x Z)| |POW (BOOL x Z)|))
(assert (!
  (forall ((p |? (BOOL x Z)|))
    (forall ((x |(BOOL x Z)|))
      (= (|set.in (BOOL x Z)| x (|set.intent (BOOL x Z)| p))
         (@ p x))))
  :named |ax:set.in.intent (BOOL x Z)|))
(declare-const NATURAL |POW Z|)
(assert (!
  (forall ((e |Z|)) (= (|set.in Z| e NATURAL) (<= 0 e)))
  :named |ax.set.in.NATURAL|))
(assert (!
  (forall ((s |POW Z|) (t |POW Z|))
    (=
      (= s t)
      (forall ((e |Z|)) (= (|set.in Z| e s) (|set.in Z| e t)))))
  :named |ax.set.eq Z|))
(assert (!
  (= s30$1 false)
  :named |Local_Hyp:0|))
(assert (!
  (|set.in Z| s9 s6)
  :named |Define:aprp:1|))
(assert (!
  (< 0 s9)
  :named |Define:aprp:6|))
(assert (!
  (<= (+ (+ s7 (* 2 s9)) s14) s16)
  :named |Define:aprp:25|))
(assert (!
  (<= (+ (+ s7 (* 2 s9)) s15) s16)
  :named |Define:aprp:26|))
(assert (!
  (< (+ (+ s19 (* (+ s10 s13) (|int.real| (+ (+ s7 (* 2 s9)) s14)))) (* (- s10 s17) (|int.real| (- s16 (+ (+ s7 (* 2 s9)) s14))))) 0.0)
  :named |Define:aprp:27|))
(assert (!
  (> (- (- (- 0.0 s19) (* (+ s10 s11) (|int.real| (+ (+ s7 (* 2 s9)) s15)))) (* (- s10 s18) (|int.real| (- s16 (+ (+ s7 (* 2 s9)) s15))))) 0.0)
  :named |Define:aprp:28|))
(assert (!
  (< 0.0 s2)
  :named |Define:lprp:5|))
(assert (!
  (< 0.0 s3)
  :named |Define:lprp:9|))
(assert (!
  (= s8 (* s2 (- (+ s0 (* (* s0 (|int.real| (- (- s7 s5) (* 2 s9)))) s3)) (* s4 (* (+ s10 s11) (|int.real| (* 2 s9)))))))
  :named |Define:lprp:12|))
(assert (!
  (= s12 (* s2 (+ (- (+ (- 0.0 s1) (|real.div| 100.0 s2)) (* (* s1 (|int.real| (- (- s7 s5) (* 2 s9)))) s3)) (* s4 (* (+ s10 s13) (|int.real| (* 2 s9)))))))
  :named |Define:lprp:13|))
(assert (!
  (<= (* (* s0 (|int.real| (- (- s7 s5) (* 2 s9)))) s3) (|real.div| 100.0 s2))
  :named |Define:lprp:14|))
(assert (!
  (<= 0.0 (- (|real.div| 100.0 s2) (* (* s1 (|int.real| (- (- s7 s5) (* 2 s9)))) s3)))
  :named |Define:lprp:15|))
(assert (!
  (<= s20$1 s9)
  :named |Define:abs:1|))
(assert (!
  (< s28$1 s26$1)
  :named |Define:abs:10|))
(assert (!
  (< s26$1 s27$1)
  :named |Define:abs:11|))
(assert (!
  (=>
  (>= s21$1 (+ (+ s7 (* 2 s9)) s14))
  (<= s25$1 (+ (+ (+ s27$1 s19) (* (+ s10 s13) (|int.real| (+ (+ s7 (* 2 s9)) s14)))) (* (- s10 s17) (|int.real| (- s21$1 (+ (+ s7 (* 2 s9)) s14)))))))
  :named |Define:abs:16|))
(assert (!
  (=>
  (>= s23$1 (+ (+ s7 (* 2 s9)) s15))
  (<= (- (- (- s28$1 s19) (* (+ s10 s11) (|int.real| (+ (+ s7 (* 2 s9)) s15)))) (* (- s10 s18) (|int.real| (- s23$1 (+ (+ s7 (* 2 s9)) s15))))) s25$1))
  :named |Define:abs:19|))
(assert (!
  (=>
  (>= s21$1 (+ (+ s7 s20$1) (|fun.eval BOOL Z| (|set.intent (BOOL x Z)| (lambda ((_c0 |(BOOL x Z)|)) (or (= _c0 (maplet true 0))(= _c0 (maplet false s9))))) s30$1)))
  (and
    (< (- s21$1 (+ s7 (* 2 s9))) s22$1)
    (> s29$1 s8)))
  :named |Define:abs:20|))
(assert (!
  (=>
  (>= s23$1 (+ (+ s7 s20$1) (|fun.eval BOOL Z| (|set.intent (BOOL x Z)| (lambda ((_c0 |(BOOL x Z)|)) (or (= _c0 (maplet true 0))(= _c0 (maplet false s9))))) s30$1)))
  (and
    (< (- s23$1 (+ s7 (* 2 s9))) s24$1)
    (< s29$1 s12)))
  :named |Define:abs:21|))
(assert (!
  (= s26 s26$1)
  :named |Define:inv:6|))
(assert (!
  (= s30 s30$1)
  :named |Define:inv:10|))
(assert (!
  (= s27$1 (+ s26$1 s0))
  :named |Define:inv:11|))
(assert (!
  (= s28$1 (- s26$1 s1))
  :named |Define:inv:12|))
(assert (!
  (<= 0.0 s31$1)
  :named |Define:inv:14|))
(assert (!
  (<= s31$1 (|real.div| 100.0 s2))
  :named |Define:inv:15|))
(assert (!
  (<= (|rmin| (|set.intent REAL| (lambda ((_c0 |REAL|)) (or (= _c0 (* (* s0 (|int.real| (- s21$1 (+ (+ s5 s20$1) (|fun.eval BOOL Z| (|set.intent (BOOL x Z)| (lambda ((_c1 |(BOOL x Z)|)) (or (= _c1 (maplet true 0))(= _c1 (maplet false s9))))) s30$1))))) s3))(= _c0 (|real.div| 100.0 s2)))))) s31$1)
  :named |Define:inv:18|))
(assert (!
  (<= s31$1 (|rmax| (|set.intent REAL| (lambda ((_c0 |REAL|)) (or (= _c0 0.0)(= _c0 (- (|real.div| 100.0 s2) (* (* s1 (|int.real| (- s23$1 (+ (+ s5 s20$1) (|fun.eval BOOL Z| (|set.intent (BOOL x Z)| (lambda ((_c1 |(BOOL x Z)|)) (or (= _c1 (maplet true 0))(= _c1 (maplet false s9))))) s30$1))))) s3))))))))
  :named |Define:inv:19|))
(assert (!
  (=>
  (< s27$1 s25$1)
  (< s0 (- s32$1 s26$1)))
  :named |Define:inv:20|))
(assert (!
  (=>
  (< s25$1 s28$1)
  (< (- s32$1 s26$1) (- 0.0 s1)))
  :named |Define:inv:21|))
(assert (!
  (<= (- 0.0 (* (+ s10 s11) (|int.real| (+ s20$1 (|fun.eval BOOL Z| (|set.intent (BOOL x Z)| (lambda ((_c0 |(BOOL x Z)|)) (or (= _c0 (maplet true 0))(= _c0 (maplet false s9))))) s30$1))))) (- s32$1 s33$1))
  :named |Define:inv:22|))
(assert (!
  (<= (- s32$1 s33$1) (* (+ s10 s13) (|int.real| (+ s20$1 (|fun.eval BOOL Z| (|set.intent (BOOL x Z)| (lambda ((_c0 |(BOOL x Z)|)) (or (= _c0 (maplet true 0))(= _c0 (maplet false s9))))) s30$1)))))
  :named |Define:inv:23|))
(assert (!
  (=>
  (<= s7 s21$1)
  (<= (* (* s0 (|int.real| (- (- s7 s5) (* 2 s9)))) s3) s31$1))
  :named |Define:ass:0|))
(assert (!
  (=>
  (<= s7 s23$1)
  (<= s31$1 (- (|real.div| 100.0 s2) (* (* s1 (|int.real| (- (- s7 s5) (* 2 s9)))) s3))))
  :named |Define:ass:1|))
(assert (!
  (= s6 NATURAL)
  :named |Define:aprp:0|))
(assert (!
  (|set.in Z| s14 s6)
  :named |Define:aprp:2|))
(assert (!
  (|set.in Z| s15 s6)
  :named |Define:aprp:3|))
(assert (!
  (|set.in Z| s7 s6)
  :named |Define:aprp:4|))
(assert (!
  (|set.in Z| s16 s6)
  :named |Define:aprp:5|))
(assert (!
  (<= 0 s14)
  :named |Define:aprp:7|))
(assert (!
  (<= 0 s15)
  :named |Define:aprp:8|))
(assert (!
  (< 0 s7)
  :named |Define:aprp:9|))
(assert (!
  (<= 0.0 s13)
  :named |Define:aprp:18|))
(assert (!
  (<= 0.0 s11)
  :named |Define:aprp:19|))
(assert (!
  (<= 0.0 s19)
  :named |Define:aprp:20|))
(assert (!
  (<= 0.0 (+ s10 s13))
  :named |Define:aprp:21|))
(assert (!
  (<= 0.0 (+ s10 s11))
  :named |Define:aprp:22|))
(assert (!
  (<= (- s10 s17) 0.0)
  :named |Define:aprp:23|))
(assert (!
  (<= 0.0 (- s18 s10))
  :named |Define:aprp:24|))
(assert (!
  (< 0.0 s0)
  :named |Define:lprp:2|))
(assert (!
  (< 0.0 s1)
  :named |Define:lprp:3|))
(assert (!
  (<= 0.0 s4)
  :named |Define:lprp:8|))
(assert (!
  (|set.in Z| s5 s6)
  :named |Define:lprp:10|))
(assert (!
  (<= s5 s7)
  :named |Define:lprp:11|))
(assert (!
  (|set.in Z| s20$1 s6)
  :named |Define:abs:0|))
(assert (!
  (|set.in Z| s21$1 s6)
  :named |Define:abs:2|))
(assert (!
  (|set.in Z| s22$1 s6)
  :named |Define:abs:3|))
(assert (!
  (|set.in Z| s23$1 s6)
  :named |Define:abs:4|))
(assert (!
  (|set.in Z| s24$1 s6)
  :named |Define:abs:5|))
(assert (!
  (=>
  (<= s25$1 s27$1)
  (= s21$1 0))
  :named |Define:abs:14|))
(assert (!
  (<= s25$1 (+ (+ s27$1 s19) (* (+ s10 s13) (|int.real| s21$1))))
  :named |Define:abs:15|))
(assert (!
  (=>
  (<= s28$1 s25$1)
  (= s23$1 0))
  :named |Define:abs:17|))
(assert (!
  (<= (- (- s28$1 s19) (* (+ s10 s11) (|int.real| s23$1))) s25$1)
  :named |Define:abs:18|))
(assert (!
  (<= s21$1 s16)
  :named |Define:abs:22|))
(assert (!
  (<= s23$1 s16)
  :named |Define:abs:23|))
(assert (!
  (= s20 s20$1)
  :named |Define:inv:0|))
(assert (!
  (= s21 s21$1)
  :named |Define:inv:1|))
(assert (!
  (= s22 s22$1)
  :named |Define:inv:2|))
(assert (!
  (= s23 s23$1)
  :named |Define:inv:3|))
(assert (!
  (= s24 s24$1)
  :named |Define:inv:4|))
(assert (!
  (= s25 s25$1)
  :named |Define:inv:5|))
(assert (!
  (= s27 s27$1)
  :named |Define:inv:7|))
(assert (!
  (= s28 s28$1)
  :named |Define:inv:8|))
(assert (!
  (= s29 s29$1)
  :named |Define:inv:9|))
(assert (!
  (not
    (exists
      ((s45 |REAL|))
      (and
        (|set.in REAL| s45 (|set.intent REAL| (lambda ((_c0 |REAL|)) (or (= _c0 0.0)(= _c0 (|rmin| (|set.intent REAL| (lambda ((_c1 |REAL|)) (or (= _c1 (+ s31$1 (* (* (- s32$1 s26$1) (|int.real| s9)) s3)))(= _c1 (|real.div| 100.0 s2)))))))))))
        (forall
          ((s46 |REAL|))
          (=>
            (|set.in REAL| s46 (|set.intent REAL| (lambda ((_c0 |REAL|)) (or (= _c0 0.0)(= _c0 (|rmin| (|set.intent REAL| (lambda ((_c1 |REAL|)) (or (= _c1 (+ s31$1 (* (* (- s32$1 s26$1) (|int.real| s9)) s3)))(= _c1 (|real.div| 100.0 s2)))))))))))
            (>= s45 s46))))))
  :named |Goal|))
(check-sat)
(exit)
